# Test a simple direct HF calculation
! HF RHF SV(P)
* xyz 0 1
C   -0.79263     0.55338    -1.58694
C    0.68078     0.13314    -1.72622
C    1.50034     0.61020    -0.52199
C    1.01517    -0.06749     0.77103
C   -0.49095    -0.38008     0.74228
C   -1.24341     0.64080    -0.11866
H    1.10490     0.53546    -2.67754
H    0.76075    -0.97866    -1.78666
H   -0.95741     1.54560    -2.07170
H   -1.42795    -0.17916    -2.14055
H   -2.34640     0.48232    -0.04725
H   -1.04144     1.66089     0.28731
H   -0.66608    -1.39636     0.31480
H   -0.89815    -0.39708     1.78184
H    1.25353     0.59796     1.63523
H    1.57519    -1.01856     0.93954
H    2.58691     0.40499    -0.67666
H    1.39420     1.71843    -0.44053
*
